data;


param FN:= 0;
param D:= 100;
param U_Original:=
         1         1        1.042699e+00
         2         1        2.755060e-01
         3         1       -1.436680e+00
         4         1       -5.868320e-01
         5         1        4.879221e-01
         6         1       -2.800396e-01
         7         1        6.707155e-01
         8         1        6.837035e-01
         9         1        2.716898e-01
        10         1        4.419019e-04
        11         1        3.744835e-01
        12         1       -1.884745e-02
        13         1        3.793959e-01
        14         1        4.095119e-02
        15         1       -2.890989e-01
        16         1       -5.436111e-02
        17         1        2.087235e-02
        18         1       -1.137779e+00
        19         1        5.913904e-01
        20         1       -7.577881e-01
        21         1        2.069218e-01
        22         1        1.050702e+00
        23         1        9.567766e-02
        24         1        5.131301e-02
        25         1        1.608382e-02
        26         1       -1.177999e+00
        27         1        3.021278e-01
        28         1       -6.672326e-01
        29         1       -7.843411e-01
        30         1       -1.208722e+00
        31         1       -2.828455e-01
        32         1       -5.592991e-01
        33         1       -9.692914e-01
        34         1        1.549230e-01
        35         1       -1.451252e-01
        36         1       -8.262882e-01
        37         1        1.347747e+00
        38         1       -6.327729e-01
        39         1        1.121902e+00
        40         1        1.349588e+00
        41         1       -9.160649e-01
        42         1        4.502405e-02
        43         1       -1.106105e+00
        44         1       -7.204452e-01
        45         1        3.380420e-02
        46         1       -1.242089e+00
        47         1       -1.133630e+00
        48         1       -4.051797e-01
        49         1       -4.827724e-01
        50         1       -9.176864e-01
        51         1        1.285022e+00
        52         1       -9.929058e-02
        53         1       -1.447770e+00
        54         1        2.060064e+00
        55         1       -9.849925e-01
        56         1       -1.493274e+00
        57         1       -5.340660e-01
        58         1        9.926568e-02
        59         1        1.858780e+00
        60         1        5.577721e-01
        61         1       -4.345070e-01
        62         1        3.122104e-02
        63         1       -7.050336e-01
        64         1       -1.724074e+00
        65         1       -1.339954e+00
        66         1       -5.427531e-01
        67         1       -9.071272e-01
        68         1       -3.527184e-01
        69         1        9.022996e-01
        70         1        6.213048e-01
        71         1        1.729408e+00
        72         1        2.521784e-02
        73         1       -3.062119e-01
        74         1        7.190305e-01
        75         1        1.134147e-01
        76         1       -4.120018e-01
        77         1       -2.299652e+00
        78         1       -1.008437e-01
        79         1       -1.466628e-01
        80         1       -2.864588e-02
        81         1       -1.065872e+00
        82         1       -1.784795e+00
        83         1        3.969165e-01
        84         1        1.712236e-01
        85         1       -1.077546e+00
        86         1        6.674140e-01
        87         1       -9.310918e-02
        88         1       -1.318266e+00
        89         1        3.074922e-01
        90         1       -1.793013e+00
        91         1        2.156542e-01
        92         1       -1.493272e+00
        93         1       -2.931003e-01
        94         1        1.240394e+00
        95         1       -1.535818e+00
        96         1       -3.330883e-01
        97         1        1.718241e+00
        98         1        1.954550e-01
        99         1        8.924249e-01
       100         1       -4.228162e-01
         1         2       -1.285740e-01
         2         2       -9.387331e-01
         3         2        2.235707e+00
         4         2       -4.796446e-01
         5         2        2.079274e-01
         6         2       -1.462779e+00
         7         2       -2.124521e-01
         8         2       -2.066219e-01
         9         2        2.637372e+00
        10         2        6.730877e-01
        11         2        3.686052e-01
        12         2       -9.413583e-01
        13         2       -1.058013e+00
        14         2       -4.342508e-01
        15         2        4.562913e-01
        16         2        3.806606e-02
        17         2       -1.186280e+00
        18         2        1.264190e+00
        19         2        2.766987e-01
        20         2        1.277887e+00
        21         2        6.722073e-01
        22         2       -1.804707e-02
        23         2       -5.610424e-01
        24         2        1.247075e+00
        25         2        8.368884e-01
        26         2        1.273083e+00
        27         2        2.623368e-01
        28         2        4.688127e-02
        29         2        8.899474e-02
        30         2       -3.609644e-01
        31         2        1.469290e+00
        32         2       -1.707692e-01
        33         2        4.765267e-01
        34         2       -4.868215e-01
        35         2        1.053134e+00
        36         2        1.941771e+00
        37         2        4.073011e-01
        38         2        2.358565e+00
        39         2       -1.406119e+00
        40         2        8.229243e-01
        41         2        5.143960e-01
        42         2       -1.928645e-01
        43         2        3.738647e-01
        44         2       -5.077525e-01
        45         2        1.789151e-01
        46         2        1.864330e+00
        47         2        1.726221e+00
        48         2       -1.529637e+00
        49         2       -8.189559e-01
        50         2        4.458873e-01
        51         2        1.557402e+00
        52         2        1.686167e+00
        53         2       -9.552020e-01
        54         2       -3.775402e-01
        55         2        1.173215e+00
        56         2       -1.435904e-01
        57         2       -5.997026e-01
        58         2       -1.046337e-01
        59         2        6.103874e-01
        60         2        1.302398e+00
        61         2        3.207601e-01
        62         2       -2.458948e-01
        63         2       -1.263782e-01
        64         2       -6.826507e-01
        65         2        1.361552e+00
        66         2       -1.041587e+00
        67         2       -3.660740e-01
        68         2       -5.036748e-01
        69         2        1.215485e+00
        70         2        2.977759e-01
        71         2        4.226606e-01
        72         2       -4.528968e-01
        73         2       -1.343938e+00
        74         2       -1.383194e+00
        75         2        1.365771e+00
        76         2        8.262768e-01
        77         2        1.377225e-01
        78         2        4.545772e-01
        79         2       -2.111148e-01
        80         2        1.919454e+00
        81         2        1.013114e-01
        82         2        3.363848e-01
        83         2        2.890157e+00
        84         2        2.776823e-02
        85         2        1.478385e+00
        86         2        7.369750e-01
        87         2       -7.123351e-01
        88         2        7.838473e-01
        89         2       -4.813759e-01
        90         2       -9.230799e-01
        91         2        2.742006e-01
        92         2        7.348322e-01
        93         2       -1.496677e+00
        94         2        2.798579e+00
        95         2        1.179621e+00
        96         2       -1.581310e+00
        97         2       -2.956542e-01
        98         2       -3.451713e-01
        99         2       -5.633750e-01
       100         2       -9.668237e-01
         1         3       -4.475530e-01
         2         3        2.347181e+00
         3         3        1.851951e+00
         4         3        1.058790e+00
         5         3       -9.928852e-02
         6         3        3.916353e-01
         7         3        4.127458e-01
         8         3       -2.840491e-01
         9         3        2.276221e-01
        10         3       -2.568830e-01
        11         3        1.717144e-02
        12         3       -1.548326e+00
        13         3       -1.084972e+00
        14         3       -1.599233e+00
        15         3        1.016692e+00
        16         3        8.461808e-01
        17         3       -2.373480e-02
        18         3        1.392692e+00
        19         3       -8.855624e-02
        20         3        1.603104e+00
        21         3       -1.393745e+00
        22         3        1.680685e+00
        23         3        1.288973e+00
        24         3        1.772574e+00
        25         3        2.723914e-01
        26         3        8.976601e-01
        27         3       -9.898752e-01
        28         3       -3.276815e-01
        29         3        3.525735e-01
        30         3       -5.766581e-01
        31         3       -7.025270e-01
        32         3       -1.703787e+00
        33         3       -4.576924e-01
        34         3       -6.572364e-01
        35         3        6.207846e-01
        36         3        1.564992e-01
        37         3        2.761496e-01
        38         3       -6.436822e-01
        39         3       -1.566082e+00
        40         3       -2.873674e-01
        41         3       -1.196414e+00
        42         3       -2.736992e-01
        43         3       -1.151223e+00
        44         3       -1.386030e+00
        45         3        2.633794e-02
        46         3       -5.219968e-01
        47         3       -7.358025e-01
        48         3       -1.351042e-01
        49         3       -1.524043e-01
        50         3       -4.164924e-01
        51         3        1.920892e+00
        52         3       -1.113884e+00
        53         3        5.157246e-01
        54         3        5.870455e-01
        55         3       -6.390259e-01
        56         3        1.852161e-01
        57         3       -8.880996e-01
        58         3        6.314990e-01
        59         3       -1.036536e+00
        60         3        1.837264e+00
        61         3        7.987543e-01
        62         3       -6.417042e-01
        63         3       -2.559469e-01
        64         3        8.117763e-01
        65         3       -1.747581e-01
        66         3        4.680701e-01
        67         3       -1.099077e-02
        68         3       -4.399780e-01
        69         3        7.339708e-01
        70         3       -1.977481e+00
        71         3        1.211190e+00
        72         3       -2.438176e-01
        73         3        5.970418e-01
        74         3       -1.315127e+00
        75         3        1.867111e+00
        76         3       -7.050115e-01
        77         3       -4.539390e-01
        78         3       -6.369068e-01
        79         3       -1.370868e-01
        80         3        5.064565e-01
        81         3       -1.939520e+00
        82         3        2.132426e+00
        83         3       -2.369424e-01
        84         3        3.999718e-02
        85         3        2.278775e-01
        86         3        8.030250e-01
        87         3       -7.592180e-01
        88         3        1.063790e+00
        89         3        1.070116e+00
        90         3        5.525093e-01
        91         3        7.872027e-01
        92         3       -1.006706e+00
        93         3        3.607884e-01
        94         3       -5.732861e-01
        95         3        1.042710e+00
        96         3        5.140767e-03
        97         3        4.174067e-01
        98         3        1.069584e+00
        99         3        3.070924e-01
       100         3       -2.002546e-01
         1         4        6.613548e-01
         2         4       -1.244958e+00
         3         4        8.080158e-01
         4         4        7.562468e-01
         5         4        8.780971e-02
         6         4        2.931408e-02
         7         4        2.587338e-01
         8         4       -3.634091e-02
         9         4        6.650651e-01
        10         4        5.186832e-01
        11         4       -1.805013e+00
        12         4       -1.168244e+00
        13         4        5.324016e-01
        14         4        9.087507e-01
        15         4       -1.967892e+00
        16         4       -4.002076e-01
        17         4       -1.056599e+00
        18         4        2.176266e-01
        19         4        1.053167e+00
        20         4       -1.776388e-01
        21         4       -1.228292e+00
        22         4        2.254248e-01
        23         4       -1.271711e+00
        24         4        7.165933e-01
        25         4       -3.779859e-01
        26         4       -5.274210e-01
        27         4       -3.611688e-01
        28         4       -3.508619e-01
        29         4        6.336195e-01
        30         4       -3.890272e-02
        31         4        2.293458e-01
        32         4        3.776734e-02
        33         4       -1.362570e-01
        34         4       -1.277877e+00
        35         4        1.262447e-02
        36         4        1.941805e+00
        37         4        4.438831e-01
        38         4       -1.076747e+00
        39         4        4.756267e-01
        40         4       -6.774151e-01
        41         4       -1.105685e+00
        42         4       -4.157647e-01
        43         4        1.108408e+00
        44         4       -1.130390e-01
        45         4        2.754782e-01
        46         4       -9.172280e-01
        47         4       -2.023090e+00
        48         4        7.180662e-01
        49         4       -1.194678e-01
        50         4       -5.879700e-01
        51         4        1.844714e+00
        52         4        5.555228e-01
        53         4       -7.008599e-02
        54         4        4.361876e-01
        55         4       -8.680423e-01
        56         4        3.509688e-01
        57         4        1.962681e-01
        58         4       -6.224789e-02
        59         4        1.988195e+00
        60         4        1.155605e+00
        61         4       -1.672458e+00
        62         4       -8.321689e-01
        63         4       -7.448836e-01
        64         4       -1.232926e+00
        65         4        1.807832e+00
        66         4       -7.368448e-01
        67         4       -1.160485e-01
        68         4        1.289209e+00
        69         4       -2.403588e+00
        70         4        7.969693e-02
        71         4        2.380829e-01
        72         4        2.876735e-02
        73         4       -1.492897e-02
        74         4        4.619939e-01
        75         4       -1.268646e+00
        76         4        9.155916e-01
        77         4       -9.943611e-01
        78         4        1.685478e-02
        79         4        9.261928e-01
        80         4        1.678070e+00
        81         4        1.642584e-01
        82         4        1.014640e+00
        83         4        1.577353e-03
        84         4       -1.182913e+00
        85         4        1.228628e+00
        86         4       -4.510872e-01
        87         4       -6.544669e-01
        88         4        2.211166e-01
        89         4        5.744785e-01
        90         4        3.456198e-01
        91         4       -2.148438e-01
        92         4        3.869407e-01
        93         4        2.285034e-01
        94         4        8.650140e-01
        95         4        4.088508e-02
        96         4        1.218329e+00
        97         4        3.187923e+00
        98         4       -3.516565e-02
        99         4       -3.474584e-01
       100         4        7.739276e-02
         1         5       -7.338656e-01
         2         5        2.273036e+00
         3         5       -1.760470e-01
         4         5       -1.552637e-01
         5         5       -3.987361e-01
         6         5        9.449203e-01
         7         5        1.791739e+00
         8         5        1.235009e+00
         9         5       -6.820706e-03
        10         5       -3.161564e-02
        11         5        1.921065e+00
        12         5       -7.557892e-01
        13         5        1.480548e+00
        14         5        1.085923e+00
        15         5        1.090091e-01
        16         5       -7.558539e-01
        17         5        3.593151e-01
        18         5        6.075928e-01
        19         5        7.953680e-01
        20         5       -5.070284e-01
        21         5        1.318163e+00
        22         5        1.573666e+00
        23         5        9.291081e-01
        24         5        2.021719e-01
        25         5        1.133503e+00
        26         5        3.854593e-02
        27         5       -5.559358e-01
        28         5       -3.925944e-01
        29         5        3.446665e-01
        30         5        2.157769e-01
        31         5       -3.203607e-01
        32         5        1.161711e+00
        33         5        3.155267e-01
        34         5        1.660084e+00
        35         5        8.917661e-01
        36         5        5.712946e-02
        37         5       -1.931862e+00
        38         5        7.211469e-01
        39         5        1.256208e+00
        40         5        1.696625e-01
        41         5        8.363003e-03
        42         5       -7.127278e-01
        43         5        7.375767e-02
        44         5        1.734137e+00
        45         5       -2.130828e-01
        46         5       -9.670200e-01
        47         5       -7.862746e-01
        48         5       -9.220066e-01
        49         5        2.019076e-01
        50         5       -3.420355e-01
        51         5        1.174403e+00
        52         5       -8.684476e-01
        53         5       -3.005054e-01
        54         5       -6.522071e-01
        55         5        1.660264e-01
        56         5        5.538143e-01
        57         5        7.741843e-02
        58         5       -8.894524e-01
        59         5       -6.289132e-02
        60         5       -6.886293e-01
        61         5       -6.451419e-01
        62         5       -7.733477e-02
        63         5        2.191140e+00
        64         5       -1.477092e+00
        65         5        1.131127e+00
        66         5        5.641841e-01
        67         5       -8.070335e-01
        68         5       -1.707021e-01
        69         5       -7.866331e-01
        70         5       -1.837918e+00
        71         5       -4.886024e-01
        72         5       -2.095019e+00
        73         5        5.337951e-01
        74         5       -5.459215e-01
        75         5       -1.878224e-01
        76         5       -2.658883e-01
        77         5        3.302141e-01
        78         5        9.092245e-01
        79         5       -7.306373e-02
        80         5        4.444685e-01
        81         5       -7.703643e-01
        82         5        8.270597e-03
        83         5        1.408568e+00
        84         5       -1.430901e+00
        85         5        7.063747e-01
        86         5        6.513053e-01
        87         5       -7.135321e-01
        88         5       -2.517173e+00
        89         5       -8.928024e-01
        90         5       -1.000518e+00
        91         5        6.161466e-01
        92         5        7.425494e-01
        93         5        7.223768e-01
        94         5        1.822735e+00
        95         5        4.317591e-01
        96         5        9.594312e-01
        97         5       -1.450806e+00
        98         5       -1.222033e+00
        99         5       -1.107850e+00
       100         5       -4.272856e-01
;
param X_Original:=
    1       -1.493914e+00
    2       -8.064773e-01
    3        9.780021e-01
    4        1.204739e-01
    5        1.731449e+00
    6        1.477446e-01
    7        1.203059e+00
    8        3.209762e-01
    9       -6.861980e-01
   10       -1.690992e+00
   11       -7.964220e-02
   12        6.268743e-01
   13        2.386973e-01
   14        1.332551e+00
   15       -2.947014e+00
   16        3.016603e-01
   17       -2.478958e-01
   18       -4.129024e+00
   19        6.423505e-02
   20       -1.244161e+00
   21       -7.831213e-01
   22       -1.042662e+00
   23        2.221708e-01
   24        3.649488e-01
   25        4.059985e-01
   26       -1.355523e+00
   27        6.501536e-01
   28        1.154311e+00
   29       -1.489763e-02
   30       -7.539278e-01
   31        1.086515e+00
   32       -1.543408e+00
   33       -1.031776e+00
   34       -1.213357e+00
   35        2.153164e-01
   36        2.701147e-01
   37       -5.126580e-01
   38        6.410315e-01
   39       -1.740010e-01
   40       -9.670075e-01
   41        3.172448e-01
   42       -4.465934e-01
   43        1.885622e+00
   44       -3.243594e-01
   45        3.780959e-01
   46        7.584595e-02
   47        7.702684e-01
   48       -2.107084e+00
   49       -7.009371e-01
   50        9.973434e-01
   51        6.233385e-02
   52        7.318561e-01
   53       -4.797179e-01
   54       -1.990307e+00
   55       -9.186262e-01
   56       -2.231301e+00
   57        9.049981e-01
   58        6.581846e-01
   59       -1.922406e-01
   60       -9.410880e-01
   61       -2.525084e-01
   62       -9.701978e-01
   63       -3.305861e+00
   64        6.609908e-01
   65        7.050534e-01
   66       -9.422572e-01
   67        2.116445e+00
   68        2.316681e-01
   69        1.306126e+00
   70        2.054522e-01
   71        5.471183e-01
   72       -1.868303e+00
   73       -3.792498e-01
   74       -1.426690e+00
   75        7.397912e-01
   76       -1.432203e+00
   77        2.616748e-01
   78       -3.917027e-01
   79        1.031331e+00
   80       -1.711603e+00
   81       -5.207424e-02
   82       -2.920647e-01
   83        2.096598e-01
   84        1.575974e+00
   85        3.419188e-01
   86        2.657879e-01
   87       -2.312042e+00
   88       -4.831148e-01
   89       -5.064914e-01
   90        2.848324e+00
   91       -7.546865e-01
   92       -9.556551e-02
   93       -2.384990e+00
   94       -6.115055e-01
   95       -4.800688e-01
   96        9.776874e-01
   97        5.519178e-01
   98        2.061733e+00
   99       -7.834641e-01
  100        2.410345e+00
;
param outliervec_original :=
    1    1
    2    1
    3    1
    4    1
    5    1
    6    1
    7    1
    8    1
    9    1
   10    1
   11    1
   12    1
   13    1
   14    0
   15    0
   16    1
   17    1
   18    0
   19    1
   20    1
   21    1
   22    1
   23    1
   24    1
   25    1
   26    1
   27    1
   28    0
   29    1
   30    1
   31    1
   32    1
   33    1
   34    1
   35    1
   36    1
   37    1
   38    1
   39    1
   40    1
   41    1
   42    1
   43    0
   44    1
   45    1
   46    0
   47    1
   48    1
   49    1
   50    1
   51    1
   52    1
   53    1
   54    1
   55    1
   56    1
   57    1
   58    1
   59    1
   60    1
   61    1
   62    1
   63    0
   64    1
   65    1
   66    1
   67    0
   68    1
   69    1
   70    1
   71    1
   72    1
   73    1
   74    1
   75    1
   76    1
   77    0
   78    1
   79    0
   80    1
   81    1
   82    1
   83    1
   84    1
   85    1
   86    1
   87    1
   88    1
   89    1
   90    0
   91    1
   92    0
   93    1
   94    1
   95    1
   96    0
   97    1
   98    1
   99    1
  100    0
;
param d:= 57;
param r:=5;
param p:=0.860000;
param M:=1000;
param U:=
         1         1       -5.868320e-01
         2         1        4.879221e-01
         3         1       -2.800396e-01
         4         1        2.716898e-01
         5         1        3.793959e-01
         6         1        4.095119e-02
         7         1       -2.890989e-01
         8         1       -5.436111e-02
         9         1        2.087235e-02
        10         1       -1.137779e+00
        11         1        5.913904e-01
        12         1       -7.577881e-01
        13         1        2.069218e-01
        14         1       -1.177999e+00
        15         1        3.021278e-01
        16         1       -6.672326e-01
        17         1       -7.843411e-01
        18         1       -1.208722e+00
        19         1       -2.828455e-01
        20         1       -9.692914e-01
        21         1        1.549230e-01
        22         1       -8.262882e-01
        23         1        1.121902e+00
        24         1        1.349588e+00
        25         1       -9.160649e-01
        26         1       -1.106105e+00
        27         1       -7.204452e-01
        28         1        3.380420e-02
        29         1       -1.242089e+00
        30         1       -1.133630e+00
        31         1       -4.827724e-01
        32         1       -9.176864e-01
        33         1       -9.929058e-02
        34         1       -1.447770e+00
        35         1       -9.849925e-01
        36         1       -5.340660e-01
        37         1        9.926568e-02
        38         1        5.577721e-01
        39         1       -4.345070e-01
        40         1        3.122104e-02
        41         1       -7.050336e-01
        42         1       -1.724074e+00
        43         1       -5.427531e-01
        44         1       -9.071272e-01
        45         1       -3.062119e-01
        46         1       -2.299652e+00
        47         1       -1.008437e-01
        48         1       -1.466628e-01
        49         1       -2.864588e-02
        50         1       -1.784795e+00
        51         1        1.712236e-01
        52         1       -1.793013e+00
        53         1        2.156542e-01
        54         1       -1.493272e+00
        55         1       -3.330883e-01
        56         1        1.954550e-01
        57         1       -4.228162e-01
         1         2       -4.796446e-01
         2         2        2.079274e-01
         3         2       -1.462779e+00
         4         2        2.637372e+00
         5         2       -1.058013e+00
         6         2       -4.342508e-01
         7         2        4.562913e-01
         8         2        3.806606e-02
         9         2       -1.186280e+00
        10         2        1.264190e+00
        11         2        2.766987e-01
        12         2        1.277887e+00
        13         2        6.722073e-01
        14         2        1.273083e+00
        15         2        2.623368e-01
        16         2        4.688127e-02
        17         2        8.899474e-02
        18         2       -3.609644e-01
        19         2        1.469290e+00
        20         2        4.765267e-01
        21         2       -4.868215e-01
        22         2        1.941771e+00
        23         2       -1.406119e+00
        24         2        8.229243e-01
        25         2        5.143960e-01
        26         2        3.738647e-01
        27         2       -5.077525e-01
        28         2        1.789151e-01
        29         2        1.864330e+00
        30         2        1.726221e+00
        31         2       -8.189559e-01
        32         2        4.458873e-01
        33         2        1.686167e+00
        34         2       -9.552020e-01
        35         2        1.173215e+00
        36         2       -5.997026e-01
        37         2       -1.046337e-01
        38         2        1.302398e+00
        39         2        3.207601e-01
        40         2       -2.458948e-01
        41         2       -1.263782e-01
        42         2       -6.826507e-01
        43         2       -1.041587e+00
        44         2       -3.660740e-01
        45         2       -1.343938e+00
        46         2        1.377225e-01
        47         2        4.545772e-01
        48         2       -2.111148e-01
        49         2        1.919454e+00
        50         2        3.363848e-01
        51         2        2.776823e-02
        52         2       -9.230799e-01
        53         2        2.742006e-01
        54         2        7.348322e-01
        55         2       -1.581310e+00
        56         2       -3.451713e-01
        57         2       -9.668237e-01
         1         3        1.058790e+00
         2         3       -9.928852e-02
         3         3        3.916353e-01
         4         3        2.276221e-01
         5         3       -1.084972e+00
         6         3       -1.599233e+00
         7         3        1.016692e+00
         8         3        8.461808e-01
         9         3       -2.373480e-02
        10         3        1.392692e+00
        11         3       -8.855624e-02
        12         3        1.603104e+00
        13         3       -1.393745e+00
        14         3        8.976601e-01
        15         3       -9.898752e-01
        16         3       -3.276815e-01
        17         3        3.525735e-01
        18         3       -5.766581e-01
        19         3       -7.025270e-01
        20         3       -4.576924e-01
        21         3       -6.572364e-01
        22         3        1.564992e-01
        23         3       -1.566082e+00
        24         3       -2.873674e-01
        25         3       -1.196414e+00
        26         3       -1.151223e+00
        27         3       -1.386030e+00
        28         3        2.633794e-02
        29         3       -5.219968e-01
        30         3       -7.358025e-01
        31         3       -1.524043e-01
        32         3       -4.164924e-01
        33         3       -1.113884e+00
        34         3        5.157246e-01
        35         3       -6.390259e-01
        36         3       -8.880996e-01
        37         3        6.314990e-01
        38         3        1.837264e+00
        39         3        7.987543e-01
        40         3       -6.417042e-01
        41         3       -2.559469e-01
        42         3        8.117763e-01
        43         3        4.680701e-01
        44         3       -1.099077e-02
        45         3        5.970418e-01
        46         3       -4.539390e-01
        47         3       -6.369068e-01
        48         3       -1.370868e-01
        49         3        5.064565e-01
        50         3        2.132426e+00
        51         3        3.999718e-02
        52         3        5.525093e-01
        53         3        7.872027e-01
        54         3       -1.006706e+00
        55         3        5.140767e-03
        56         3        1.069584e+00
        57         3       -2.002546e-01
         1         4        7.562468e-01
         2         4        8.780971e-02
         3         4        2.931408e-02
         4         4        6.650651e-01
         5         4        5.324016e-01
         6         4        9.087507e-01
         7         4       -1.967892e+00
         8         4       -4.002076e-01
         9         4       -1.056599e+00
        10         4        2.176266e-01
        11         4        1.053167e+00
        12         4       -1.776388e-01
        13         4       -1.228292e+00
        14         4       -5.274210e-01
        15         4       -3.611688e-01
        16         4       -3.508619e-01
        17         4        6.336195e-01
        18         4       -3.890272e-02
        19         4        2.293458e-01
        20         4       -1.362570e-01
        21         4       -1.277877e+00
        22         4        1.941805e+00
        23         4        4.756267e-01
        24         4       -6.774151e-01
        25         4       -1.105685e+00
        26         4        1.108408e+00
        27         4       -1.130390e-01
        28         4        2.754782e-01
        29         4       -9.172280e-01
        30         4       -2.023090e+00
        31         4       -1.194678e-01
        32         4       -5.879700e-01
        33         4        5.555228e-01
        34         4       -7.008599e-02
        35         4       -8.680423e-01
        36         4        1.962681e-01
        37         4       -6.224789e-02
        38         4        1.155605e+00
        39         4       -1.672458e+00
        40         4       -8.321689e-01
        41         4       -7.448836e-01
        42         4       -1.232926e+00
        43         4       -7.368448e-01
        44         4       -1.160485e-01
        45         4       -1.492897e-02
        46         4       -9.943611e-01
        47         4        1.685478e-02
        48         4        9.261928e-01
        49         4        1.678070e+00
        50         4        1.014640e+00
        51         4       -1.182913e+00
        52         4        3.456198e-01
        53         4       -2.148438e-01
        54         4        3.869407e-01
        55         4        1.218329e+00
        56         4       -3.516565e-02
        57         4        7.739276e-02
         1         5       -1.552637e-01
         2         5       -3.987361e-01
         3         5        9.449203e-01
         4         5       -6.820706e-03
         5         5        1.480548e+00
         6         5        1.085923e+00
         7         5        1.090091e-01
         8         5       -7.558539e-01
         9         5        3.593151e-01
        10         5        6.075928e-01
        11         5        7.953680e-01
        12         5       -5.070284e-01
        13         5        1.318163e+00
        14         5        3.854593e-02
        15         5       -5.559358e-01
        16         5       -3.925944e-01
        17         5        3.446665e-01
        18         5        2.157769e-01
        19         5       -3.203607e-01
        20         5        3.155267e-01
        21         5        1.660084e+00
        22         5        5.712946e-02
        23         5        1.256208e+00
        24         5        1.696625e-01
        25         5        8.363003e-03
        26         5        7.375767e-02
        27         5        1.734137e+00
        28         5       -2.130828e-01
        29         5       -9.670200e-01
        30         5       -7.862746e-01
        31         5        2.019076e-01
        32         5       -3.420355e-01
        33         5       -8.684476e-01
        34         5       -3.005054e-01
        35         5        1.660264e-01
        36         5        7.741843e-02
        37         5       -8.894524e-01
        38         5       -6.886293e-01
        39         5       -6.451419e-01
        40         5       -7.733477e-02
        41         5        2.191140e+00
        42         5       -1.477092e+00
        43         5        5.641841e-01
        44         5       -8.070335e-01
        45         5        5.337951e-01
        46         5        3.302141e-01
        47         5        9.092245e-01
        48         5       -7.306373e-02
        49         5        4.444685e-01
        50         5        8.270597e-03
        51         5       -1.430901e+00
        52         5       -1.000518e+00
        53         5        6.161466e-01
        54         5        7.425494e-01
        55         5        9.594312e-01
        56         5       -1.222033e+00
        57         5       -4.272856e-01
;

param theta:=
    1       -3.397616e-01
    2       -1.260153e+00
    3       -1.418752e+00
    4        4.275024e-01
    5       -1.711140e+00
;
param X_true:=
    1       -1.093761e-01
    2        4.329002e-01
    3       -2.215202e-01
    4       -3.442753e+00
    5        4.378387e-01
    6        1.332551e+00
    7       -2.947014e+00
    8       -1.077381e-01
    9        4.549396e-01
   10       -4.129024e+00
   11       -1.334729e+00
   12       -2.835617e+00
   13       -1.720669e+00
   14       -2.769028e+00
   15        1.768035e+00
   16        1.154311e+00
   17       -6.647709e-01
   18        1.297827e+00
   19       -1.124905e-01
   20       -2.199770e-01
   21       -1.893643e+00
   22       -1.655852e+00
   23        1.666412e+00
   24       -1.667759e+00
   25        8.734475e-01
   26        1.885622e+00
   27       -1.646172e-01
   28        2.080692e-01
   29        7.584595e-02
   30       -2.656675e-01
   31        1.015696e+00
   32        6.747194e-01
   33        1.212754e+00
   34        1.448157e+00
   35       -8.923325e-01
   36        2.148596e+00
   37        6.975535e-01
   38       -2.764987e+00
   39       -1.000864e+00
   40        9.862527e-01
   41       -3.305861e+00
   42        2.294740e+00
   43       -4.475106e-01
   44        2.116445e+00
   45        3.077259e-02
   46        2.616748e-01
   47       -1.183566e+00
   48        1.031331e+00
   49       -3.170778e+00
   50       -2.423266e+00
   51        1.792860e+00
   52        2.848324e+00
   53       -2.681810e+00
   54       -9.556551e-02
   55        9.776874e-01
   56        9.271215e-01
   57        2.410345e+00
;
param X:=
    1        1.204739e-01
    2        1.731449e+00
    3        1.477446e-01
    4       -6.861980e-01
    5        2.386973e-01
    6        1.332551e+00
    7       -2.947014e+00
    8        3.016603e-01
    9       -2.478958e-01
   10       -4.129024e+00
   11        6.423505e-02
   12       -1.244161e+00
   13       -7.831213e-01
   14       -1.355523e+00
   15        6.501536e-01
   16        1.154311e+00
   17       -1.489763e-02
   18       -7.539278e-01
   19        1.086515e+00
   20       -1.031776e+00
   21       -1.213357e+00
   22        2.701147e-01
   23       -1.740010e-01
   24       -9.670075e-01
   25        3.172448e-01
   26        1.885622e+00
   27       -3.243594e-01
   28        3.780959e-01
   29        7.584595e-02
   30        7.702684e-01
   31       -7.009371e-01
   32        9.973434e-01
   33        7.318561e-01
   34       -4.797179e-01
   35       -9.186262e-01
   36        9.049981e-01
   37        6.581846e-01
   38       -9.410880e-01
   39       -2.525084e-01
   40       -9.701978e-01
   41       -3.305861e+00
   42        6.609908e-01
   43       -9.422572e-01
   44        2.116445e+00
   45       -3.792498e-01
   46        2.616748e-01
   47       -3.917027e-01
   48        1.031331e+00
   49       -1.711603e+00
   50       -2.920647e-01
   51        1.575974e+00
   52        2.848324e+00
   53       -7.546865e-01
   54       -9.556551e-02
   55        9.776874e-01
   56        2.061733e+00
   57        2.410345e+00
;
param outliervec:=
    1    1
    2    1
    3    1
    4    1
    5    1
    6    0
    7    0
    8    1
    9    1
   10    0
   11    1
   12    1
   13    1
   14    1
   15    1
   16    0
   17    1
   18    1
   19    1
   20    1
   21    1
   22    1
   23    1
   24    1
   25    1
   26    0
   27    1
   28    1
   29    0
   30    1
   31    1
   32    1
   33    1
   34    1
   35    1
   36    1
   37    1
   38    1
   39    1
   40    1
   41    0
   42    1
   43    1
   44    0
   45    1
   46    0
   47    1
   48    0
   49    1
   50    1
   51    1
   52    0
   53    1
   54    0
   55    0
   56    1
   57    0
; 
param greedy_time :=         2.082829e-01
;